NAME : f40b671c-63b7-46f6-bb12-7f66ebaa3fe6.tsptw.4528.tour
COMMENT : Length = 4528
COMMENT : Found by LKH [Keld Helsgaun] Wed Jan 29 18:13:59 2020
TYPE : TOUR
DIMENSION : 8
TOUR_SECTION
1
3
8
4
2
6
7
5
-1
EOF
